NAME : a280
COMMENT : Tour length 3227
TYPE : TOUR
DIMENSION : 280
TOUR_SECTION
1
280
2
3
5
6
9
7
8
10
11
12
15
13
14
24
23
25
22
26
27
28
29
32
31
33
34
35
36
37
38
39
40
41
42
43
60
61
118
117
115
114
111
110
108
104
103
102
169
168
167
166
165
164
163
162
161
175
160
159
158
157
119
120
121
122
123
124
125
126
127
128
21
130
131
20
19
18
17
16
271
272
273
274
275
276
277
4
278
279
260
259
258
257
256
255
254
253
252
209
208
206
207
210
211
212
213
214
215
216
217
218
219
220
221
222
223
224
225
226
227
228
229
230
251
250
247
245
240
241
244
243
242
239
246
231
238
237
232
233
234
235
236
249
248
261
262
263
264
265
266
140
139
138
137
136
135
134
270
269
268
267
141
142
143
144
200
201
196
195
194
197
198
199
145
146
147
148
149
150
178
177
151
152
156
153
155
154
129
132
133
30
48
47
46
45
56
55
54
53
52
51
50
49
44
57
58
59
63
62
116
86
85
84
87
113
112
88
83
82
81
80
79
76
75
74
73
72
71
70
67
66
65
64
68
69
77
78
95
94
97
98
93
92
91
90
109
89
105
106
173
174
107
170
171
172
101
100
99
96
188
189
190
191
192
193
186
187
185
184
183
182
181
180
179
176
202
203
204
205
1
-1
EOF